# Objective value = 39
WA1n 0
WA1p 0
WA2n 1
WA2p 0
WB1n 0
WB1p 0
WB2n 1
WB2p 0
WC1n 0
WC1p 0
WC2n 1
WC2p 0
WD1n 0
WD1p 0
WD2n 1
WD2p 0
WE1n 0
WE1p 0
WE2n 0
WE2p 1
WF1n 0
WF1p 0
WF2n 0
WF2p 1
WG1n 0
WG1p 0
WG2n 0
WG2p 1
WH1n 0
WH1p 0
WH2n 0
WH2p 1
WI1n 0
WI1p 0
WI2n 0
WI2p 1
WJ1n 0
WJ1p 4
WJ2n 0
WJ2p 1
WK1n 0
WK1p 4
WK2n 0
WK2p 1
WT1n 0
WT1p 7
WT2n 0
WT2p 1
5 7
a 0
b 0
c 0
d 0
e 0
f 0
g 0
h 0
i 0
j 1
k 0
l 1
m 0
n 1
o 0
p 1
q 0
r 1
s 1
t 1
u 1
v 1
w 1
x 1
